\ENCODING=ISO-8859-1
\Problem name: Initial

Minimize
 obj: 30 x1 + 34 x2 + 68 x3 + 69 x4 + 25 x5 + 36 x6 + 27 x7 + 86 x8 + 69 x9
      + 64 x10 + 68 x11 + 25 x12 + 44 x13 + 21 x14 + 34 x15 + 13 x16 + 42 x17
      + 19 x18 + 39 x19 + 76 x20 + 24 x21 + 52 x22 + 34 x23 + 30 x24 + 50 x25
      + 168 x26 + 96 x27 + 104 x28 + 110 x29 + 30 x30 + 93 x31 + 30 x32
      + 152 x33 + 69 x34 + 100 x35 + 35 x36 + 63 x37 + 88 x38 + 195 x39
      + 84 x40 + 1000 x41 + 1000 x42 + 1000 x43 + 1000 x44 + 1000 x45
      + 1000 x46 + 1000 x47 + 1000 x48 + 1000 x49 + 1000 x50 + 1000 x51
      + 1000 x52 + 1000 x53 + 114 x54 + 90 x55 + 72 x56 + 87 x57 + 43 x58
      + 88 x59 + 88 x60 + 39 x61 + 29 x62 + 36 x63 + 52 x64 + 94 x65 + 54 x66
      + 39 x67 + 52 x68 + 224 x69 + 156 x70 + 125 x71 + 66 x72 + 102 x73
      + 160 x74 + 140 x75 + 78 x76 + 100 x77 + 325 x78 + 84 x79 + 120 x80
      + 74 x81 + 180 x82 + 159 x83 + 34 x84 + 27 x85 + 102 x86 + 40 x87
      + 53 x88 + 94 x89 + 100 x90 + 76 x91 + 112 x92 + 84 x93 + 80 x94
      + 180 x95 + 244 x96 + 150 x97 + 30 x98 + 117 x99 + 150 x100 + 69 x101
      + 88 x102 + 210 x103 + 171 x104 + 128 x105 + 68 x106 + 132 x107 + 34 x108
      + 27 x109 + 86 x110 + 34 x111 + 88 x112 + 86 x113 + 106 x114 + 84 x115
      + 30 x116 + 104 x117 + 184 x118 + 96 x119 + 110 x120 + 30 x121 + 93 x122
      + 34 x123 + 160 x124 + 235 x125 + 329 x126 + 84 x127 + 100 x128
      + 215 x129 + 84 x130 + 30 x131 + 34 x132 + 152 x133 + 69 x134 + 34 x135
      + 27 x136 + 88 x137 + 44 x138 + 21 x139 + 102 x140 + 52 x141 + 76 x142
      + 120 x143 + 30 x144 + 76 x145 + 188 x146 + 104 x147 + 115 x148 + 30 x149
      + 96 x150 + 38 x151 + 140 x152 + 35 x153 + 63 x154 + 88 x155 + 280 x156
Subject To
 c1:   x1 + x54 + x80 + x104 + x131  = 1
 c2:   x2 + x55 + x81 + x105 + x132  = 1
 c3:   x3 + x56 + x82 + x106 + x133  = 1
 c4:   x4 + x57 + x83 + x107 + x134  = 1
 c5:   x5 + x84 + x108 + x135  = 1
 c6:   x6  = 1
 c7:   x7 + x58 + x85 + x109 + x136  = 1
 c8:   x8 + x59 + x86 + x110 + x137  = 1
 c9:   x9  = 1
 c10:  x10  = 1
 c11:  x11 + x60  = 1
 c12:  x12 + x61 + x87 + x111 + x138  = 1
 c13:  x13  = 1
 c14:  x14 + x62 + x88 + x139  = 1
 c15:  x15 + x63 + x89 + x112 + x140  = 1
 c16:  x16  = 1
 c17:  x17 + x64 + x90 + x141  = 1
 c18:  x18  = 1
 c19:  x19  = 1
 c20:  x20 + x65 + x91 + x113 + x142  = 1
 c21:  x21  = 1
 c22:  x22 + x66 + x92 + x114 + x143  = 1
 c23:  x23 + x93 + x115  = 1
 c24:  x24 + x67 + x116 + x144  = 1
 c25:  x25 + x68 + x94 + x117 + x145  = 1
 c26:  x26 + x69 + x95 + x118 + x146  = 1
 c27:  x27 + x119  = 1
 c28:  x28 + x70 + x96 + x147  = 1
 c29:  x29 + x71 + x97 + x120 + x148  = 1
 c30:  x30 + x72 + x98 + x121 + x149  = 1
 c31:  x31 + x73 + x99 + x122 + x150  = 1
 c32:  x32 + x123 + x151  = 1
 c33:  x33 + x74 + x124  = 1
 c34:  x34  = 1
 c35:  x35 + x75 + x100 + x125 + x152  = 1
 c36:  x36 + x126 + x153  = 1
 c37:  x37 + x76 + x101 + x127 + x154  = 1
 c38:  x38 + x77 + x102 + x128 + x155  = 1
 c39:  x39 + x78 + x103 + x129 + x156  = 1
 c40:  x40 + x79 + x130  = 1
 c41:  x5 + 2 x8 + x58 + 2 x59 + 5 x75 + 2 x89 + 2 x92 + 2 x94 + 5 x100
       + 2 x112 + 2 x114 + 2 x117 + 5 x125 + 2 x140 + 2 x143 + 2 x145 + 5 x152
       - x157  = 0
 c42:  2 x2 + 2 x20 + 2 x55 + 2 x65 + 4 x69 + 5 x78 + 2 x105 + 2 x113 + 4 x118
       + 5 x129 + 2 x132 - x158  = 0
 c43:  - x159  = 0
 c44:  3 x4 + 3 x83 + x84 + x88 + 2 x90 + 4 x96 + x108 + 3 x134 + x135 - x160
        = 0
 c45:  2 x6 - x161  = 0
 c46:  3 x1 + 2 x2 + 3 x4 + x12 + 2 x20 - x41 + 3 x131 + 2 x132 + 3 x134 - x162
        = 0
 c47:  3 x54 + 2 x55 + 3 x57 + 3 x80 + 2 x81 + 4 x82 + 3 x83 + 3 x104 + 2 x105
       + 3 x107 + 4 x133 - x163  = 0
 c48:  4 x3 + 2 x8 - x42 + 4 x106 - x164  = 0
 c49:  x5 + 4 x56 + x58 + 2 x59 - x165  = 0
 c50:  2 x8 + x58 + 2 x59 + x138 + 2 x140 + 2 x143 + 2 x151 - x166  = 0
 c51:  x7 + x85 + 2 x86 + x109 + 2 x110 + x136 + 2 x137 - x167  = 0
 c52:  2 x32 + 3 x80 + 3 x83 + x87 + x88 + 2 x89 + 2 x90 + 2 x92 + 2 x94
       + 4 x96 + 5 x100 - x168  = 0
 c53:  4 x26 + 5 x39 - x43 + 2 x81 + 2 x91 + 4 x95 + 5 x103 + x138 + 2 x140
       + 2 x142 + 2 x143 + 4 x146 + 2 x151 + 5 x156 - x169  = 0
 c54:  3 x57 + x62 + 2 x64 + 4 x70 + 5 x71 + 2 x72 + 3 x73 + 2 x123 + 2 x141
       - x170  = 0
 c55:  x7 + 2 x30 + x85 + 2 x86 + 5 x97 + 2 x98 + 3 x99 + x109 + 2 x121 + x136
       + 2 x137 + 5 x148 + 2 x149 + 3 x150 - x171  = 0
 c56:  5 x29 + 3 x31 - x44 + 2 x110 + 5 x120 + 3 x122 - x172  = 0
 c57:  3 x104 + 2 x105 + x111 + 2 x112 + 2 x113 + 2 x114 + 2 x117 + 4 x118
       + 2 x123 + 5 x125 + 5 x129 - x173  = 0
 c58:  4 x26 + 5 x39 - x45 - x174  = 0
 c59:  4 x33 + 3 x34 + 5 x71 + 2 x72 + 3 x73 + 4 x74 + x84 + x108 + 4 x124
       + x135 - x175  = 0
 c60:  3 x54 + 2 x55 + x61 + 2 x65 + 4 x69 + 5 x75 + 5 x78 + 2 x145 + 5 x152
       - x176  = 0
 c61:  5 x35 - x46 - x177  = 0
 c62:  7 x36 + 3 x57 + 3 x80 + 2 x81 + 3 x83 + 2 x94 + 4 x95 + 4 x96 + 5 x100
       + 5 x103 + 7 x153 - x178  = 0
 c63:  4 x82 + 2 x86 + 5 x97 + 3 x99 + 7 x126 + 3 x127 - x179  = 0
 c64:  3 x76 + 3 x101 + 3 x104 + 2 x105 + 3 x107 + 5 x125 - x180  = 0
 c65:  x7 + 2 x30 + 3 x37 - x47 + x85 + 2 x93 + 2 x98 + x109 + 2 x115 + 2 x121
       + 4 x133 + x136 + 2 x137 + 5 x148 + 2 x149 + 3 x150 + 3 x154 - x181  = 0
 c66:  2 x15 + 2 x20 + 2 x22 + 2 x25 - x48 - x182  = 0
 c67:  x62 + 2 x64 + 4 x70 + x87 + x88 + 2 x89 + 2 x90 + 2 x91 + 2 x92 + 7 x126
       + x138 + 2 x140 + 2 x141 + 2 x142 + 2 x143 + 4 x146 + 5 x156 - x183  = 0
 c68:  - x184  = 0
 c69:  3 x37 + 2 x63 + 2 x66 + 3 x67 + 2 x68 + 3 x76 + 4 x77 + 3 x127 + 4 x128
       + 3 x154 - x185  = 0
 c70:  3 x27 + 4 x60 + 4 x74 + 3 x119 + 4 x124 - x186  = 0
 c71:  2 x17 + x18 + 2 x93 + 2 x112 + 2 x114 + 2 x115 + 2 x117 - x187  = 0
 c72:  3 x9 - x188  = 0
 c73:  2 x8 + 3 x19 + 3 x31 + 3 x40 + 2 x59 + 3 x73 + 3 x79 + 2 x86 + 3 x99
       + 2 x110 + 3 x122 + 3 x130 + 2 x137 + 3 x150 - x189  = 0
 c74:  2 x10 + x16 - x190  = 0
 c75:  2 x23 + x58 + x61 + 2 x65 + 4 x69 + 2 x72 + 5 x78 - x191  = 0
 c76:  x12 + 2 x63 + 2 x66 + 2 x68 - x192  = 0
 c77:  4 x56 + x58 + 2 x59 + 4 x60 + x61 + x62 + x87 + x88 + x138 - x193  = 0
 c78:  4 x11 + 4 x33 - x49 - x194  = 0
 c79:  2 x13 + x14 + x111 + x139 - x195  = 0
 c80:  3 x9 + 2 x10 - x196  = 0
 c81:  - x197  = 0
 c82:  x14 + 2 x17 + 4 x26 + 4 x28 + 5 x39 - x50 + 3 x104 + 2 x105 + 3 x107
       + x111 + 2 x112 + 2 x113 + 2 x114 + 2 x117 + 4 x118 + 5 x125 + 5 x129
       + x139 + 4 x147 - x198  = 0
 c83:  2 x93 + 4 x95 + 4 x96 + 5 x103 + 2 x115 - x199  = 0
 c84:  3 x40 + 3 x67 + 5 x71 + 2 x72 + 3 x73 + 4 x74 + 3 x76 + 4 x124 + 5 x156
       - x200  = 0
 c85:  3 x24 + 4 x33 + 4 x38 - x51 + x84 + 3 x101 + 4 x102 + x108 + 3 x116
       + x135 + 3 x144 + 4 x155 - x201  = 0
 c86:  3 x34 - x202  = 0
 c87:  2 x13 + x21 - x203  = 0
 c88:  x18 - x204  = 0
 c89:  3 x19 + 2 x20 + 2 x65 + 2 x91 + 2 x142 - x205  = 0
 c90:  x21 + 2 x113 - x206  = 0
 c91:  2 x22 + 2 x23 + 2 x66 + 2 x92 + 2 x93 + 2 x114 + 2 x115 + 2 x143 - x207
        = 0
 c92:  3 x27 + 4 x69 + 4 x70 + 4 x77 + 5 x78 + 3 x79 + 3 x119 + 4 x128 + 3 x130
       + 4 x146 - x208  = 0
 c93:  4 x26 + 4 x28 + 4 x95 + 4 x96 + 4 x118 + 4 x147 - x209  = 0
 c94:  x61 + 2 x65 + 4 x69 + 5 x78 + 2 x94 + 2 x145 - x210  = 0
 c95:  2 x25 + 3 x37 + 2 x68 + 2 x117 + 4 x133 + 2 x137 + 5 x148 + 3 x150
       + 3 x154 - x211  = 0
 c96:  4 x38 + 5 x39 - x52 + 5 x129 + 4 x155 + 5 x156 - x212  = 0
 c97:  4 x77 + 5 x78 + 4 x102 + 5 x103 + 4 x128 - x213  = 0
 c98:  4 x26 + 4 x28 + 3 x40 - x53 + 4 x95 + 4 x96 + 4 x102 + 5 x103 + 4 x118
       + 4 x147 - x214  = 0
 c99:  4 x77 + 5 x78 + 3 x79 + 4 x128 + 3 x130 - x215  = 0
 c100: - x216  = 0
Bounds
 0 <= x157 <= 5
 0 <= x158 <= 5
 0 <= x159 <= 2
 0 <= x160 <= 3
 0 <= x161 <= 4
 0 <= x162 <= 5
 0 <= x163 <= 4
 0 <= x164 <= 2
 0 <= x165 <= 2
 0 <= x166 <= 5
 0 <= x167 <= 8
 0 <= x168 <= 2
 0 <= x169 <= 8
 0 <= x170 <= 5
 0 <= x171 <= 10
 0 <= x172 <= 5
 0 <= x173 <= 3
 0 <= x174 <= 5
 0 <= x175 <= 14
 0 <= x176 <= 4
 0 <= x177 <= 4
 0 <= x178 <= 10
 0 <= x179 <= 3
 0 <= x180 <= 4
 0 <= x181 <= 5
 0 <= x182 <= 2
 0 <= x183 <= 5
 0 <= x184 <= 3
 0 <= x185 <= 10
 0 <= x186 <= 8
 0 <= x187 <= 5
 0 <= x188 <= 8
 0 <= x189 <= 12
 0 <= x190 <= 10
 0 <= x191 <= 5
 0 <= x192 <= 2
 0 <= x193 <= 10
 0 <= x194 <= 6
 0 <= x195 <= 10
 0 <= x196 <= 8
 0 <= x197 <= 6
 0 <= x198 <= 14
 0 <= x199 <= 4
 0 <= x200 <= 5
 0 <= x201 <= 10
 0 <= x202 <= 5
 0 <= x203 <= 8
 0 <= x204 <= 10
 0 <= x205 <= 8
 0 <= x206 <= 5
 0 <= x207 <= 12
 0 <= x208 <= 10
 0 <= x209 <= 8
 0 <= x210 <= 5
 0 <= x211 <= 5
 0 <= x212 <= 8
 0 <= x213 <= 7
 0 <= x214 <= 10
 0 <= x215 <= 8
 0 <= x216 <= 7
End
